2 1
3 1
3 2
4 1
4 2
4 3
5 1
5 2
5 3
5 4
6 1
6 2
6 3
6 4
6 5
7 1
7 2
7 3
7 4
7 5
7 6
8 1
8 2
8 3
8 4
8 5
8 6
8 7
9 1
9 2
9 3
9 4
9 5
9 6
9 7
9 8
10 1
10 2
10 3
10 4
10 5
10 6
10 7
10 8
10 9
11 1
11 2
11 3
11 4
11 5
11 6
11 7
11 8
11 9
11 10
12 1
12 2
13 1
13 2
13 3
13 12
14 2
14 3
14 4
14 12
14 13
15 3
15 4
15 5
15 12
15 13
15 14
16 4
16 5
16 6
16 12
16 13
16 14
16 15
17 5
17 6
17 7
17 12
17 13
17 14
17 15
17 16
18 6
18 7
18 8
18 12
18 13
18 14
18 15
18 16
18 17
19 7
19 8
19 9
19 12
19 13
19 14
19 15
19 16
19 17
19 18
20 8
20 9
20 10
20 12
20 13
20 14
20 15
20 16
20 17
20 18
20 19
21 9
21 10
21 11
21 12
21 13
21 14
21 15
21 16
21 17
21 18
21 19
21 20
22 10
22 11
22 12
22 13
22 14
22 15
22 16
22 17
22 18
22 19
22 20
22 21
23 1
23 3
23 12
23 13
24 2
24 4
24 12
24 13
24 14
24 23
25 1
25 3
25 5
25 13
25 14
25 15
25 23
25 24
26 2
26 4
26 6
26 14
26 15
26 16
26 23
26 24
26 25
27 3
27 5
27 7
27 15
27 16
27 17
27 23
27 24
27 25
27 26
28 4
28 6
28 8
28 16
28 17
28 18
28 23
28 24
28 25
28 26
28 27
29 5
29 7
29 9
29 17
29 18
29 19
29 23
29 24
29 25
29 26
29 27
29 28
30 6
30 8
30 10
30 18
30 19
30 20
30 23
30 24
30 25
30 26
30 27
30 28
30 29
31 7
31 9
31 11
31 19
31 20
31 21
31 23
31 24
31 25
31 26
31 27
31 28
31 29
31 30
32 8
32 10
32 20
32 21
32 22
32 23
32 24
32 25
32 26
32 27
32 28
32 29
32 30
32 31
33 9
33 11
33 21
33 22
33 23
33 24
33 25
33 26
33 27
33 28
33 29
33 30
33 31
33 32
34 1
34 4
34 12
34 14
34 23
34 24
35 2
35 5
35 13
35 15
35 23
35 24
35 25
35 34
36 3
36 6
36 12
36 14
36 16
36 24
36 25
36 26
36 34
36 35
37 1
37 4
37 7
37 13
37 15
37 17
37 25
37 26
37 27
37 34
37 35
37 36
38 2
38 5
38 8
38 14
38 16
38 18
38 26
38 27
38 28
38 34
38 35
38 36
38 37
39 3
39 6
39 9
39 15
39 17
39 19
39 27
39 28
39 29
39 34
39 35
39 36
39 37
39 38
40 4
40 7
40 10
40 16
40 18
40 20
40 28
40 29
40 30
40 34
40 35
40 36
40 37
40 38
40 39
41 5
41 8
41 11
41 17
41 19
41 21
41 29
41 30
41 31
41 34
41 35
41 36
41 37
41 38
41 39
41 40
42 6
42 9
42 18
42 20
42 22
42 30
42 31
42 32
42 34
42 35
42 36
42 37
42 38
42 39
42 40
42 41
43 7
43 10
43 19
43 21
43 31
43 32
43 33
43 34
43 35
43 36
43 37
43 38
43 39
43 40
43 41
43 42
44 8
44 11
44 20
44 22
44 32
44 33
44 34
44 35
44 36
44 37
44 38
44 39
44 40
44 41
44 42
44 43
45 1
45 5
45 12
45 15
45 23
45 25
45 34
45 35
46 2
46 6
46 13
46 16
46 24
46 26
46 34
46 35
46 36
46 45
47 3
47 7
47 14
47 17
47 23
47 25
47 27
47 35
47 36
47 37
47 45
47 46
48 4
48 8
48 12
48 15
48 18
48 24
48 26
48 28
48 36
48 37
48 38
48 45
48 46
48 47
49 1
49 5
49 9
49 13
49 16
49 19
49 25
49 27
49 29
49 37
49 38
49 39
49 45
49 46
49 47
49 48
50 2
50 6
50 10
50 14
50 17
50 20
50 26
50 28
50 30
50 38
50 39
50 40
50 45
50 46
50 47
50 48
50 49
51 3
51 7
51 11
51 15
51 18
51 21
51 27
51 29
51 31
51 39
51 40
51 41
51 45
51 46
51 47
51 48
51 49
51 50
52 4
52 8
52 16
52 19
52 22
52 28
52 30
52 32
52 40
52 41
52 42
52 45
52 46
52 47
52 48
52 49
52 50
52 51
53 5
53 9
53 17
53 20
53 29
53 31
53 33
53 41
53 42
53 43
53 45
53 46
53 47
53 48
53 49
53 50
53 51
53 52
54 6
54 10
54 18
54 21
54 30
54 32
54 42
54 43
54 44
54 45
54 46
54 47
54 48
54 49
54 50
54 51
54 52
54 53
55 7
55 11
55 19
55 22
55 31
55 33
55 43
55 44
55 45
55 46
55 47
55 48
55 49
55 50
55 51
55 52
55 53
55 54
56 1
56 6
56 12
56 16
56 23
56 26
56 34
56 36
56 45
56 46
57 2
57 7
57 13
57 17
57 24
57 27
57 35
57 37
57 45
57 46
57 47
57 56
58 3
58 8
58 14
58 18
58 25
58 28
58 34
58 36
58 38
58 46
58 47
58 48
58 56
58 57
59 4
59 9
59 15
59 19
59 23
59 26
59 29
59 35
59 37
59 39
59 47
59 48
59 49
59 56
59 57
59 58
60 5
60 10
60 12
60 16
60 20
60 24
60 27
60 30
60 36
60 38
60 40
60 48
60 49
60 50
60 56
60 57
60 58
60 59
61 1
61 6
61 11
61 13
61 17
61 21
61 25
61 28
61 31
61 37
61 39
61 41
61 49
61 50
61 51
61 56
61 57
61 58
61 59
61 60
62 2
62 7
62 14
62 18
62 22
62 26
62 29
62 32
62 38
62 40
62 42
62 50
62 51
62 52
62 56
62 57
62 58
62 59
62 60
62 61
63 3
63 8
63 15
63 19
63 27
63 30
63 33
63 39
63 41
63 43
63 51
63 52
63 53
63 56
63 57
63 58
63 59
63 60
63 61
63 62
64 4
64 9
64 16
64 20
64 28
64 31
64 40
64 42
64 44
64 52
64 53
64 54
64 56
64 57
64 58
64 59
64 60
64 61
64 62
64 63
65 5
65 10
65 17
65 21
65 29
65 32
65 41
65 43
65 53
65 54
65 55
65 56
65 57
65 58
65 59
65 60
65 61
65 62
65 63
65 64
66 6
66 11
66 18
66 22
66 30
66 33
66 42
66 44
66 54
66 55
66 56
66 57
66 58
66 59
66 60
66 61
66 62
66 63
66 64
66 65
67 1
67 7
67 12
67 17
67 23
67 27
67 34
67 37
67 45
67 47
67 56
67 57
68 2
68 8
68 13
68 18
68 24
68 28
68 35
68 38
68 46
68 48
68 56
68 57
68 58
68 67
69 3
69 9
69 14
69 19
69 25
69 29
69 36
69 39
69 45
69 47
69 49
69 57
69 58
69 59
69 67
69 68
70 4
70 10
70 15
70 20
70 26
70 30
70 34
70 37
70 40
70 46
70 48
70 50
70 58
70 59
70 60
70 67
70 68
70 69
71 5
71 11
71 16
71 21
71 23
71 27
71 31
71 35
71 38
71 41
71 47
71 49
71 51
71 59
71 60
71 61
71 67
71 68
71 69
71 70
72 6
72 12
72 17
72 22
72 24
72 28
72 32
72 36
72 39
72 42
72 48
72 50
72 52
72 60
72 61
72 62
72 67
72 68
72 69
72 70
72 71
73 1
73 7
73 13
73 18
73 25
73 29
73 33
73 37
73 40
73 43
73 49
73 51
73 53
73 61
73 62
73 63
73 67
73 68
73 69
73 70
73 71
73 72
74 2
74 8
74 14
74 19
74 26
74 30
74 38
74 41
74 44
74 50
74 52
74 54
74 62
74 63
74 64
74 67
74 68
74 69
74 70
74 71
74 72
74 73
75 3
75 9
75 15
75 20
75 27
75 31
75 39
75 42
75 51
75 53
75 55
75 63
75 64
75 65
75 67
75 68
75 69
75 70
75 71
75 72
75 73
75 74
76 4
76 10
76 16
76 21
76 28
76 32
76 40
76 43
76 52
76 54
76 64
76 65
76 66
76 67
76 68
76 69
76 70
76 71
76 72
76 73
76 74
76 75
77 5
77 11
77 17
77 22
77 29
77 33
77 41
77 44
77 53
77 55
77 65
77 66
77 67
77 68
77 69
77 70
77 71
77 72
77 73
77 74
77 75
77 76
78 1
78 8
78 12
78 18
78 23
78 28
78 34
78 38
78 45
78 48
78 56
78 58
78 67
78 68
79 2
79 9
79 13
79 19
79 24
79 29
79 35
79 39
79 46
79 49
79 57
79 59
79 67
79 68
79 69
79 78
80 3
80 10
80 14
80 20
80 25
80 30
80 36
80 40
80 47
80 50
80 56
80 58
80 60
80 68
80 69
80 70
80 78
80 79
81 4
81 11
81 15
81 21
81 26
81 31
81 37
81 41
81 45
81 48
81 51
81 57
81 59
81 61
81 69
81 70
81 71
81 78
81 79
81 80
82 5
82 16
82 22
82 27
82 32
82 34
82 38
82 42
82 46
82 49
82 52
82 58
82 60
82 62
82 70
82 71
82 72
82 78
82 79
82 80
82 81
83 6
83 17
83 23
83 28
83 33
83 35
83 39
83 43
83 47
83 50
83 53
83 59
83 61
83 63
83 71
83 72
83 73
83 78
83 79
83 80
83 81
83 82
84 7
84 12
84 18
84 24
84 29
84 36
84 40
84 44
84 48
84 51
84 54
84 60
84 62
84 64
84 72
84 73
84 74
84 78
84 79
84 80
84 81
84 82
84 83
85 1
85 8
85 13
85 19
85 25
85 30
85 37
85 41
85 49
85 52
85 55
85 61
85 63
85 65
85 73
85 74
85 75
85 78
85 79
85 80
85 81
85 82
85 83
85 84
86 2
86 9
86 14
86 20
86 26
86 31
86 38
86 42
86 50
86 53
86 62
86 64
86 66
86 74
86 75
86 76
86 78
86 79
86 80
86 81
86 82
86 83
86 84
86 85
87 3
87 10
87 15
87 21
87 27
87 32
87 39
87 43
87 51
87 54
87 63
87 65
87 75
87 76
87 77
87 78
87 79
87 80
87 81
87 82
87 83
87 84
87 85
87 86
88 4
88 11
88 16
88 22
88 28
88 33
88 40
88 44
88 52
88 55
88 64
88 66
88 76
88 77
88 78
88 79
88 80
88 81
88 82
88 83
88 84
88 85
88 86
88 87
89 1
89 9
89 12
89 19
89 23
89 29
89 34
89 39
89 45
89 49
89 56
89 59
89 67
89 69
89 78
89 79
90 2
90 10
90 13
90 20
90 24
90 30
90 35
90 40
90 46
90 50
90 57
90 60
90 68
90 70
90 78
90 79
90 80
90 89
91 3
91 11
91 14
91 21
91 25
91 31
91 36
91 41
91 47
91 51
91 58
91 61
91 67
91 69
91 71
91 79
91 80
91 81
91 89
91 90
92 4
92 15
92 22
92 26
92 32
92 37
92 42
92 48
92 52
92 56
92 59
92 62
92 68
92 70
92 72
92 80
92 81
92 82
92 89
92 90
92 91
93 5
93 16
93 27
93 33
93 38
93 43
93 45
93 49
93 53
93 57
93 60
93 63
93 69
93 71
93 73
93 81
93 82
93 83
93 89
93 90
93 91
93 92
94 6
94 17
94 28
94 34
94 39
94 44
94 46
94 50
94 54
94 58
94 61
94 64
94 70
94 72
94 74
94 82
94 83
94 84
94 89
94 90
94 91
94 92
94 93
95 7
95 18
95 23
95 29
95 35
95 40
95 47
95 51
95 55
95 59
95 62
95 65
95 71
95 73
95 75
95 83
95 84
95 85
95 89
95 90
95 91
95 92
95 93
95 94
96 8
96 12
96 19
96 24
96 30
96 36
96 41
96 48
96 52
96 60
96 63
96 66
96 72
96 74
96 76
96 84
96 85
96 86
96 89
96 90
96 91
96 92
96 93
96 94
96 95
97 1
97 9
97 13
97 20
97 25
97 31
97 37
97 42
97 49
97 53
97 61
97 64
97 73
97 75
97 77
97 85
97 86
97 87
97 89
97 90
97 91
97 92
97 93
97 94
97 95
97 96
98 2
98 10
98 14
98 21
98 26
98 32
98 38
98 43
98 50
98 54
98 62
98 65
98 74
98 76
98 86
98 87
98 88
98 89
98 90
98 91
98 92
98 93
98 94
98 95
98 96
98 97
99 3
99 11
99 15
99 22
99 27
99 33
99 39
99 44
99 51
99 55
99 63
99 66
99 75
99 77
99 87
99 88
99 89
99 90
99 91
99 92
99 93
99 94
99 95
99 96
99 97
99 98
100 1
100 10
100 12
100 20
100 23
100 30
100 34
100 40
100 45
100 50
100 56
100 60
100 67
100 70
100 78
100 80
100 89
100 90
101 2
101 11
101 13
101 21
101 24
101 31
101 35
101 41
101 46
101 51
101 57
101 61
101 68
101 71
101 79
101 81
101 89
101 90
101 91
101 100
102 3
102 14
102 22
102 25
102 32
102 36
102 42
102 47
102 52
102 58
102 62
102 69
102 72
102 78
102 80
102 82
102 90
102 91
102 92
102 100
102 101
103 4
103 15
103 26
103 33
103 37
103 43
103 48
103 53
103 59
103 63
103 67
103 70
103 73
103 79
103 81
103 83
103 91
103 92
103 93
103 100
103 101
103 102
104 5
104 16
104 27
104 38
104 44
104 49
104 54
104 56
104 60
104 64
104 68
104 71
104 74
104 80
104 82
104 84
104 92
104 93
104 94
104 100
104 101
104 102
104 103
105 6
105 17
105 28
105 39
105 45
105 50
105 55
105 57
105 61
105 65
105 69
105 72
105 75
105 81
105 83
105 85
105 93
105 94
105 95
105 100
105 101
105 102
105 103
105 104
106 7
106 18
106 29
106 34
106 40
106 46
106 51
106 58
106 62
106 66
106 70
106 73
106 76
106 82
106 84
106 86
106 94
106 95
106 96
106 100
106 101
106 102
106 103
106 104
106 105
107 8
107 19
107 23
107 30
107 35
107 41
107 47
107 52
107 59
107 63
107 71
107 74
107 77
107 83
107 85
107 87
107 95
107 96
107 97
107 100
107 101
107 102
107 103
107 104
107 105
107 106
108 9
108 12
108 20
108 24
108 31
108 36
108 42
108 48
108 53
108 60
108 64
108 72
108 75
108 84
108 86
108 88
108 96
108 97
108 98
108 100
108 101
108 102
108 103
108 104
108 105
108 106
108 107
109 1
109 10
109 13
109 21
109 25
109 32
109 37
109 43
109 49
109 54
109 61
109 65
109 73
109 76
109 85
109 87
109 97
109 98
109 99
109 100
109 101
109 102
109 103
109 104
109 105
109 106
109 107
109 108
110 2
110 11
110 14
110 22
110 26
110 33
110 38
110 44
110 50
110 55
110 62
110 66
110 74
110 77
110 86
110 88
110 98
110 99
110 100
110 101
110 102
110 103
110 104
110 105
110 106
110 107
110 108
110 109
111 1
111 11
111 12
111 21
111 23
111 31
111 34
111 41
111 45
111 51
111 56
111 61
111 67
111 71
111 78
111 81
111 89
111 91
111 100
111 101
112 2
112 13
112 22
112 24
112 32
112 35
112 42
112 46
112 52
112 57
112 62
112 68
112 72
112 79
112 82
112 90
112 92
112 100
112 101
112 102
112 111
113 3
113 14
113 25
113 33
113 36
113 43
113 47
113 53
113 58
113 63
113 69
113 73
113 80
113 83
113 89
113 91
113 93
113 101
113 102
113 103
113 111
113 112
114 4
114 15
114 26
114 37
114 44
114 48
114 54
114 59
114 64
114 70
114 74
114 78
114 81
114 84
114 90
114 92
114 94
114 102
114 103
114 104
114 111
114 112
114 113
115 5
115 16
115 27
115 38
115 49
115 55
115 60
115 65
115 67
115 71
115 75
115 79
115 82
115 85
115 91
115 93
115 95
115 103
115 104
115 105
115 111
115 112
115 113
115 114
116 6
116 17
116 28
116 39
116 50
116 56
116 61
116 66
116 68
116 72
116 76
116 80
116 83
116 86
116 92
116 94
116 96
116 104
116 105
116 106
116 111
116 112
116 113
116 114
116 115
117 7
117 18
117 29
117 40
117 45
117 51
117 57
117 62
117 69
117 73
117 77
117 81
117 84
117 87
117 93
117 95
117 97
117 105
117 106
117 107
117 111
117 112
117 113
117 114
117 115
117 116
118 8
118 19
118 30
118 34
118 41
118 46
118 52
118 58
118 63
118 70
118 74
118 82
118 85
118 88
118 94
118 96
118 98
118 106
118 107
118 108
118 111
118 112
118 113
118 114
118 115
118 116
118 117
119 9
119 20
119 23
119 31
119 35
119 42
119 47
119 53
119 59
119 64
119 71
119 75
119 83
119 86
119 95
119 97
119 99
119 107
119 108
119 109
119 111
119 112
119 113
119 114
119 115
119 116
119 117
119 118
120 10
120 12
120 21
120 24
120 32
120 36
120 43
120 48
120 54
120 60
120 65
120 72
120 76
120 84
120 87
120 96
120 98
120 108
120 109
120 110
120 111
120 112
120 113
120 114
120 115
120 116
120 117
120 118
120 119
121 1
121 11
121 13
121 22
121 25
121 33
121 37
121 44
121 49
121 55
121 61
121 66
121 73
121 77
121 85
121 88
121 97
121 99
121 109
121 110
121 111
121 112
121 113
121 114
121 115
121 116
121 117
121 118
121 119
121 120
11